# helium.molden with cc-pVDZ basis

molecule helium {

    symmetry C1     # point group
    units    au     # units (ang/au)

    no_reorient     # prevent automatic rotation to canonical orientation (for testing)
    no_com          # prevent automatic shift to centre

    He   0.000000000   0.000000000  0.00000000

}

set {

    basis cc-pVDZ
    reference       rhf
    maxiter         100
    restricted_docc [0]
    active          [2]
    mcscf_maxiter   1000
    num_roots       1
#    avg_states      [ 1, 1, ]
#    avg_weights     [ 1, 0, ]
}

[E, wfn] = energy('casscf', return_wfn=True)

molden(wfn, 'helium.molden')

