# hydrogen.peroxide.molden with EMSL cc-pVDZ basis

molecule h2o2 {

    symmetry C2     # point group
    units    au     # units (ang/au)

    no_reorient     # prevent automatic rotation to canonical orientation (for testing)
    no_com          # prevent automatic shift to centre

    O  -0.104312875   1.315816206   0.000000000
    H   0.834502997   1.699052636   1.477198805
    O  -0.104312875  -1.315816206   0.000000000
    H   0.834502997  -1.699052636  -1.477198805

}

basis {

    assign emsl-cc-pVDZ

    [emsl-cc-pVDZ]
    spherical
    ****
    # OXYGEN       (9s,4p,1d) -> [3s,2p,1d]
    O     0
    S   8   1.0
    11720.0000000    0.0007100
     1759.0000000    0.0054700
      400.8000000    0.0278370
      113.7000000    0.1048000
       37.0300000    0.2830620
       13.2700000    0.4487190
        5.0250000    0.2709520
        1.0130000    0.0154580
    S   8   1.0
    11720.0000000   -0.0001600
     1759.0000000   -0.0012630
      400.8000000   -0.0062670
      113.7000000   -0.0257160
       37.0300000   -0.0709240
       13.2700000   -0.1654110
        5.0250000   -0.1169550
        1.0130000    0.5573680
    S   1   1.0
        0.3023000    1.0000000
    P   3   1.0
       17.7000000    0.0430180
        3.8540000    0.2289130
        1.0460000    0.5087280
    P   1   1.0
        0.2753000    1.0000000
    D   1   1.0
        1.1850000    1.0000000
    ****
    # HYDROGEN       (4s,1p) -> [2s,1p]
    H     0
    S   3   1.0
      13.0100000     0.0196850
       1.9620000     0.1379770
       0.4446000     0.4781480
    S   1   1.0
       0.1220000     1.0000000
    P   1   1.0
       0.7270000     1.0000000
    ****

}

# HF
set reference       rhf
set maxiter         100

# CASSCF
set restricted_docc [2,2]
set active          [4,4]
set mcscf_maxiter   1000

# state averaging
set num_roots       3
set avg_states      [ 0, 1, 2 ]
set avg_weights     [ 1, 1, 1 ]

[E, wfn] = energy('casscf', return_wfn=True)

molden(wfn, 'hydrogen.peroxide.molden')
