!    H2O
!
!    ---
!    RHF
!    ---
!
 $CONTRL SCFTYP=RHF ICHARG=+2 ISPHER=-1 QMTTOL=1.0E-6 $END
 $GUESS  GUESS=HUCKEL                        $END
 $SCF    NCONV=9                             $END
 $ELMOM  IEMOM=1 IEMINT=1              $END
!
!    -------
!    General
!    -------
!
 $CONTRL EXETYP=RUN MULT=1 RUNTYP=ENERGY  CCTYP=CCSD $END
 $CCINP NCORE=0 NFZV=0 MAXCC=1 $END
 $CONTRL EXETYP=RUN MULT=1 RUNTYP=ENERGY     $END
 $CONTRL UNITS=ANGS MAXIT=100 NPRINT=4       $END
 $INTGRL NINTMX=50000 NDAR=100000            $END
 $SYSTEM TIMLIM=9999 MEMORY=60000000         $END
 $CONTRL INTTYP=HONDO ICUT=40 ITOL=40        $END

 $DATA
Ne
CN 1

NEON 12.0 0.00000000 0.00000000 0.00000000
S   13
  1 327600.0000000              0.309608D-04     
  2  49050.0000000              0.240954D-03     
  3  11150.0000000              0.126660D-02     
  4   3152.0000000              0.533359D-02     
  5   1025.0000000              0.190770D-01     
  6    368.8000000              0.588058D-01     
  7    143.2000000              0.151454D+00     
  8     58.9600000              0.300716D+00     
  9     25.4000000              0.381149D+00     
 10     11.1500000              0.213584D+00     
 11      4.0040000              0.231210D-01     
 12      1.7010000             -0.230757D-02     
 13      0.7060000              0.128900D-02     
S   13
  1 327600.0000000             -0.783173D-05     
  2  49050.0000000             -0.607935D-04     
  3  11150.0000000             -0.321197D-03     
  4   3152.0000000             -0.134955D-02     
  5   1025.0000000             -0.490570D-02     
  6    368.8000000             -0.153561D-01     
  7    143.2000000             -0.423409D-01     
  8     58.9600000             -0.940603D-01     
  9     25.4000000             -0.163425D+00     
 10     11.1500000             -0.124754D+00     
 11      4.0040000              0.235623D+00     
 12      1.7010000              0.577563D+00     
 13      0.7060000              0.335232D+00     
S   13
  1 327600.0000000              0.150908D-05     
  2  49050.0000000              0.117134D-04     
  3  11150.0000000              0.618980D-04     
  4   3152.0000000              0.260088D-03     
  5   1025.0000000              0.946218D-03     
  6    368.8000000              0.296595D-02     
  7    143.2000000              0.821245D-02     
  8     58.9600000              0.183977D-01     
  9     25.4000000              0.326657D-01     
 10     11.1500000              0.257315D-01     
 11      4.0040000             -0.535351D-01     
 12      1.7010000             -0.156895D+00     
 13      0.7060000             -0.206659D+00     
S   1
  1      0.1410000              1.0000000        
S   1
  1      0.0680800              1.0000000        
S   1
  1      0.0306300              1.0000000        
P   9
  1    539.6000000              0.833969D-03     
  2    127.9000000              0.689215D-02     
  3     41.0200000              0.337874D-01     
  4     15.2500000              0.114401D+00     
  5      6.1660000              0.259514D+00     
  6      2.5610000              0.385095D+00     
  7      1.0600000              0.335373D+00     
  8      0.4176000              0.110641D+00     
  9      0.2690000             -0.121315D-01     
P   9
  1    539.6000000             -0.132076D-03     
  2    127.9000000             -0.109538D-02     
  3     41.0200000             -0.539495D-02     
  4     15.2500000             -0.185572D-01     
  5      6.1660000             -0.427375D-01     
  6      2.5610000             -0.647684D-01     
  7      1.0600000             -0.627818D-01     
  8      0.4176000             -0.244912D-01     
  9      0.2690000              0.104761D+00     
P   1
  1      0.1223000              1.0000000        
P   1
  1      0.0547600              1.0000000        
P   1
  1      0.0238800              1.0000000        
D   1
  1      0.1060000              1.0000000        
D   1
  1      0.1944000              1.0000000        
D   1
  1      0.3570000              1.0000000        
 S   1
   1     1000.00000000  1.0000000
 S   1
   1      464.1588628  1.0000000
 S   1
   1      215.4434499  1.0000000
 S   1
   1       99.9999867  1.0000000
 S   1
   1       46.4158801  1.0000000
 S   1
   1       21.5443421  1.0000000
 S   1
   1       9.9999973  1.0000000
 S   1
   1      4.641588628  1.0000000
 S   1
   1      2.154434499  1.0000000
 S   1
   1       0.999999867  1.0000000
 P   1
   1     1000.0000000  1.0000000
 P   1
   1      464.1588628  1.0000000
 P   1
   1      215.4434499  1.0000000
 P   1
   1       99.9999867  1.0000000
 P   1
   1       46.4158801  1.0000000
 P   1
   1       21.5443421  1.0000000
 P   1
   1       9.9999973  1.0000000
 P   1
   1      4.641588628  1.0000000
 P   1
   1      2.154434499  1.0000000
 P   1
   1       0.999999867  1.0000000
 D   1
   1     1000.0000000  1.0000000
 D   1
   1      464.1588628  1.0000000
 D   1
   1      215.4434499  1.0000000
 D   1
   1       99.9999867  1.0000000
 D   1
   1       46.4158801  1.0000000
 D   1
   1       21.5443421  1.0000000
 D   1
   1       9.9999973  1.0000000
 D   1
   1      4.641588628  1.0000000
 D   1
   1      2.154434499  1.0000000
 D   1
   1       0.999999867  1.0000000

 $END
