# trans.diazene_scattering.molden with EMSL cc-pVDZ basis

molecule transdiazene {

    symmetry C2h    # point group
    units    au     # units (ang/au)

    no_reorient     # prevent automatic rotation to canonical orientation (for testing)
    no_com          # prevent automatic shift to centre

    N   0.000000000   0.000000000   1.147819566
    H   0.000000000   1.840404140   1.722863184
    N   0.000000000   0.000000000  -1.147819566
    H   0.000000000  -1.840404140  -1.722863184

}

basis {

    assign emsl-cc-pVDZ

    [emsl-cc-pVDZ]
    spherical
    ****
    # NITROGEN       (9s,4p,1d) -> [3s,2p,1d]
    N     0
    S   8   1.0
     9046.0000000    0.0007000
     1357.0000000    0.0053890
      309.3000000    0.0274060
       87.7300000    0.1032070
       28.5600000    0.2787230
       10.2100000    0.4485400
        3.8380000    0.2782380
        0.7466000    0.0154400
    S   8   1.0
     9046.0000000   -0.0001530
     1357.0000000   -0.0012080
      309.3000000   -0.0059920
       87.7300000   -0.0245440
       28.5600000   -0.0674590
       10.2100000   -0.1580780
        3.8380000   -0.1218310
        0.7466000    0.5490030
    S   1   1.0
        0.2248000    1.0000000
    P   3   1.0
       13.5500000    0.0399190
        2.9170000    0.2171690
        0.7973000    0.5103190
    P   1   1.0
        0.2185000    1.0000000
    D   1   1.0
        0.8170000    1.0000000
    ****
    # HYDROGEN       (4s,1p) -> [2s,1p]
    H     0
    S   3   1.0
      13.0100000     0.0196850
       1.9620000     0.1379770
       0.4446000     0.4781480
    S   1   1.0
       0.1220000     1.0000000
    P   1   1.0
       0.7270000     1.0000000
    ****

}

[E, wfn] = energy('scf', return_wfn=True)

molden(wfn, 'trans.diazene_scattering.molden')
