# benzene.molden with EMSL cc-pVDZ basis

molecule benzene {

    symmetry D2h    # point group
    units    au     # units (ang/au)

    no_reorient     # prevent automatic rotation to canonical orientation (for testing)
    no_com          # prevent automatic shift to centre

    C   0.000000000   0.000000000   2.645994329
    C   0.000000000  -2.291481734   1.322997165
    H   0.000000000   0.000000000   4.700693397
    H   0.000000000  -4.070847725   2.350252212
    C   0.000000000  -2.291481734  -1.322997165
    C   0.000000000   0.000000000  -2.645994329
    H   0.000000000  -4.070847725  -2.350252212
    H   0.000000000   0.000000000  -4.700693397
    C   0.000000000   2.291481734  -1.322997165
    C   0.000000000   2.291481734   1.322997165
    H   0.000000000   4.070847725  -2.350252212
    H   0.000000000   4.070847725   2.350252212
}

basis {

    assign emsl-cc-pVDZ

    [emsl-cc-pVDZ]
    spherical
    ****
    # CARBON       (9s,4p,1d) -> [3s,2p,1d]
    C     0
    S   8   1.0
     6665.0000000    0.0006920
     1000.0000000    0.0053290
      228.0000000    0.0270770
       64.7100000    0.1017180
       21.0600000    0.2747400
        7.4950000    0.4485640
        2.7970000    0.2850740
        0.5215000    0.0152040
    S   8   1.0
     6665.0000000   -0.0001460
     1000.0000000   -0.0011540
      228.0000000   -0.0057250
       64.7100000   -0.0233120
       21.0600000   -0.0639550
        7.4950000   -0.1499810
        2.7970000   -0.1272620
        0.5215000    0.5445290
    S   1   1.0
        0.1596000    1.0000000
    P   3   1.0
       9.4390000     0.0381090
       2.0020000     0.2094800
       0.5456000     0.5085570
    P   1   1.0
       0.1517000     1.0000000
    D   1   1.0
       0.5500000     1.0000000
    ****
    # HYDROGEN       (4s,1p) -> [2s,1p]
    H     0
    S   3   1.0
      13.0100000     0.0196850
       1.9620000     0.1379770
       0.4446000     0.4781480
    S   1   1.0
       0.1220000     1.0000000
    P   1   1.0
       0.7270000     1.0000000
    ****

}

# HF
set reference       rhf
set maxiter         100

# CASSCF
set restricted_docc [5,0,0,2,0,5,4,0]  # Ag,B1g,B2g,B3g,Au,B1u,B2u,B3u
set active          [2,1,1,1,1,0,0,2]
set mcscf_maxiter   1000

# state averaging
set num_roots       17
set avg_states      [ 0, 1, 2, 3, 4, 5, 6, 7, 8, 9, 10, 11, 12, 13, 14, 15, 16 ]
set avg_weights     [ 1, 1, 1, 1, 1, 1, 1, 1, 1, 1, 1., 1., 1., 1., 1., 1., 1. ]

[E, wfn] = energy('casscf', return_wfn=True)

molden(wfn, 'benzene.molden')
