# pyridine.molden with EMSL cc-pVDZ basis

molecule pyridine {

    symmetry C2v    # point group
    units    au     # units (ang/au)

    no_reorient     # prevent automatic rotation to canonical orientation (for testing)
    no_com          # prevent automatic shift to centre

    N   0.000000000   0.000000000   2.696450217
    C   0.000000000  -2.157500324   1.366649938
    C   0.000000000  -2.266726495  -1.275187193
    C   0.000000000   0.000000000  -2.628609049
    H   0.000000000  -3.891324050   2.474029451
    H   0.000000000  -4.081997416  -2.232900397
    H   0.000000000   0.000000000  -4.682552381
    C   0.000000000   2.266726495  -1.275187193
    C   0.000000000   2.157500324   1.366649938
    H   0.000000000   4.081997416  -2.232900397
    H   0.000000000   3.891324050   2.474029451

}

basis {

    assign emsl-cc-pVDZ

    [emsl-cc-pVDZ]
    spherical
    ****
    # CARBON       (9s,4p,1d) -> [3s,2p,1d]
    C     0
    S   8   1.0
     6665.0000000    0.0006920
     1000.0000000    0.0053290
      228.0000000    0.0270770
       64.7100000    0.1017180
       21.0600000    0.2747400
        7.4950000    0.4485640
        2.7970000    0.2850740
        0.5215000    0.0152040
    S   8   1.0
     6665.0000000   -0.0001460
     1000.0000000   -0.0011540
      228.0000000   -0.0057250
       64.7100000   -0.0233120
       21.0600000   -0.0639550
        7.4950000   -0.1499810
        2.7970000   -0.1272620
        0.5215000    0.5445290
    S   1   1.0
        0.1596000    1.0000000
    P   3   1.0
        9.4390000    0.0381090
        2.0020000    0.2094800
        0.5456000    0.5085570
    P   1   1.0
        0.1517000    1.0000000
    D   1   1.0
        0.5500000    1.0000000
    ****
    # NITROGEN       (9s,4p,1d) -> [3s,2p,1d]
    N     0
    S   8   1.0
     9046.0000000    0.0007000
     1357.0000000    0.0053890
      309.3000000    0.0274060
       87.7300000    0.1032070
       28.5600000    0.2787230
       10.2100000    0.4485400
        3.8380000    0.2782380
        0.7466000    0.0154400
    S   8   1.0
     9046.0000000   -0.0001530
     1357.0000000   -0.0012080
      309.3000000   -0.0059920
       87.7300000   -0.0245440
       28.5600000   -0.0674590
       10.2100000   -0.1580780
        3.8380000   -0.1218310
        0.7466000    0.5490030
    S   1   1.0
        0.2248000    1.0000000
    P   3   1.0
       13.5500000    0.0399190
        2.9170000    0.2171690
        0.7973000    0.5103190
    P   1   1.0
        0.2185000    1.0000000
    D   1   1.0
        0.8170000    1.0000000
    ****
    # HYDROGEN       (4s,1p) -> [2s,1p]
    H     0
    S   3   1.0
      13.0100000     0.0196850
       1.9620000     0.1379770
       0.4446000     0.4781480
    S   1   1.0
       0.1220000     1.0000000
    P   1   1.0
       0.7270000     1.0000000
    ****

}

# HF
set reference       rhf
set maxiter         100

# CASSCF
set restricted_docc [10,0,0,6]  # A1,A2,B1,B2
set active          [ 1,2,4,1]
set mcscf_maxiter   1000

# state averaging
set num_roots       5
set avg_states      [ 0, 1, 2, 3, 4, ]
set avg_weights     [ 1, 1, 1, 1, 1, ]

[E, wfn] = energy('casscf', return_wfn=True)

molden(wfn, 'pyridine.molden')
