# uracil_lactim.molden with EMSL cc-pVDZ basis

molecule uracil {

    symmetry Cs     # point group
    units    au     # units (ang/au)

    no_reorient     # prevent automatic rotation to canonical orientation (for testing)
    no_com          # prevent automatic shift to centre

    C   0.000000000   2.390300000   0.734200000
    C   0.000000000   2.328300000  -2.003500000
    N   0.000000000   0.000000000   1.878600000
    C   0.000000000   0.100900000  -3.216300000
    O   0.000000000   4.309300000   2.017300000
    N   0.000000000  -2.151500000  -1.929400000
    C   0.000000000  -2.309400000   0.682000000
    O   0.000000000  -4.331100000   1.789900000
    H   0.000000000   4.109200000  -2.981200000
    H   0.000000000  -0.072900000   3.780800000
    H   0.000000000  -0.041400000  -5.251700000
    H   0.000000000  -3.821000000   2.829700000

}

basis {

    assign emsl-cc-pVDZ

    [emsl-cc-pVDZ]
    spherical
    ****
    # CARBON       (9s,4p,1d) -> [3s,2p,1d]
    C     0
    S   8   1.0
     6665.0000000    0.0006920
     1000.0000000    0.0053290
      228.0000000    0.0270770
       64.7100000    0.1017180
       21.0600000    0.2747400
        7.4950000    0.4485640
        2.7970000    0.2850740
        0.5215000    0.0152040
    S   8   1.0
     6665.0000000   -0.0001460
     1000.0000000   -0.0011540
      228.0000000   -0.0057250
       64.7100000   -0.0233120
       21.0600000   -0.0639550
        7.4950000   -0.1499810
        2.7970000   -0.1272620
        0.5215000    0.5445290
    S   1   1.0
        0.1596000    1.0000000
    P   3   1.0
        9.4390000    0.0381090
        2.0020000    0.2094800
        0.5456000    0.5085570
    P   1   1.0
        0.1517000    1.0000000
    D   1   1.0
        0.5500000    1.0000000
    ****
    # NITROGEN       (9s,4p,1d) -> [3s,2p,1d]
    N     0
    S   8   1.0
     9046.0000000    0.0007000
     1357.0000000    0.0053890
      309.3000000    0.0274060
       87.7300000    0.1032070
       28.5600000    0.2787230
       10.2100000    0.4485400
        3.8380000    0.2782380
        0.7466000    0.0154400
    S   8   1.0
     9046.0000000   -0.0001530
     1357.0000000   -0.0012080
      309.3000000   -0.0059920
       87.7300000   -0.0245440
       28.5600000   -0.0674590
       10.2100000   -0.1580780
        3.8380000   -0.1218310
        0.7466000    0.5490030
    S   1   1.0
        0.2248000    1.0000000
    P   3   1.0
       13.5500000    0.0399190
        2.9170000    0.2171690
        0.7973000    0.5103190
    P   1   1.0
        0.2185000    1.0000000
    D   1   1.0
        0.8170000    1.0000000
    ****
    # OXYGEN       (9s,4p,1d) -> [3s,2p,1d]
    O     0
    S   8   1.0
    11720.0000000    0.0007100
     1759.0000000    0.0054700
      400.8000000    0.0278370
      113.7000000    0.1048000
       37.0300000    0.2830620
       13.2700000    0.4487190
        5.0250000    0.2709520
        1.0130000    0.0154580
    S   8   1.0
    11720.0000000   -0.0001600
     1759.0000000   -0.0012630
      400.8000000   -0.0062670
      113.7000000   -0.0257160
       37.0300000   -0.0709240
       13.2700000   -0.1654110
        5.0250000   -0.1169550
        1.0130000    0.5573680
    S   1   1.0
        0.3023000    1.0000000
    P   3   1.0
       17.7000000    0.0430180
        3.8540000    0.2289130
        1.0460000    0.5087280
    P   1   1.0
        0.2753000    1.0000000
    D   1   1.0
        1.1850000    1.0000000
    ****
    # HYDROGEN       (4s,1p) -> [2s,1p]
    H     0
    S   3   1.0
      13.0100000     0.0196850
       1.9620000     0.1379770
       0.4446000     0.4781480
    S   1   1.0
       0.1220000     1.0000000
    P   1   1.0
       0.7270000     1.0000000
    ****

}

[E, wfn] = energy('scf', return_wfn=True)

molden(wfn, 'uracil_lactim.molden')
