memory 600 mb

molecule h2 {
  H 
  H 1 0.74
}

set basis cc-pVDZ

[E, wfn] = energy('scf', return_wfn=True)
molden(wfn, 'h2_test.molden')
